Custom/7922960_22.param
$ LBS instance with n = 22, seed = 7922960
letting cards be [9,28,51,10,38,13,7,33,26,8,21,24,3,35,15,0,30,39,12,41,25,18]
